p tdp 122 121
34 46
101 39
24 79
82 41
120 49
67 109
85 8
15 70
81 120
97 33
83 105
113 20
57 118
18 99
89 8
30 107
96 13
108 116
25 85
64 73
80 10
42 6
31 121
111 12
21 110
22 99
51 66
52 43
62 33
26 88
6 118
11 26
28 99
60 112
107 88
64 53
82 99
5 115
104 81
78 84
16 76
75 119
71 50
108 44
19 76
119 47
17 27
74 49
118 72
29 87
14 100
90 91
63 61
65 64
25 74
112 32
64 114
92 117
96 115
103 46
35 30
17 16
81 30
122 59
5 23
36 78
93 80
101 2
61 16
48 42
92 97
54 25
100 75
92 84
121 1
65 56
114 67
70 77
12 78
5 24
4 119
22 40
110 94
33 86
112 3
92 113
9 105
70 106
67 29
94 53
45 38
37 25
55 101
44 121
24 43
116 79
35 95
29 45
105 106
118 80
64 4
90 71
9 102
67 98
90 97
51 59
112 76
45 80
7 46
46 32
9 47
62 51
68 2
47 58
2 32
21 81
69 70
64 16
61 43
28 97
50 68
